859388
46,28,34,71,90,59,19,12,40,51,25,78,79,29,94,26,17,24,43,52,65,54,98,23,11,15,83,61,16,58,82,67,27,2,64,5,3,85,89,8,53,91,97,42,35,36,50,88,76,38,99,68,72,44,55,49,93,62,56,69,75,6,41,18,10,77,30,96,21,20,32,60,31,63,13,80,37,74,70,9,33,57,47,1,48,87,45,86,81,4,66,7,14,39,92,84,22,73,95